
  22   10
  10   10   10   10   10   10   10   10   10   10

   0   0   0   0   0   0   0   0   0   0   0   2 2 4 
   6   0  10   0   0   0   0   0   0   0   0   1 3 
   1  10   0   0   0   0   0   0   0   0   0   2 11 5 
   5   0   0  10   0   0   0   0   0   0   0   2 11 6 
   1   0   0   0  10   0   0   0   0   0   0   1 6 
   8  10   0   0   0   0   0   0   0   0   0   1 7 
   9   0   0   0   0   0   0   0   0  10   0   2 9 8 
   4   0  10   0   0   0   0   0   0   0   0   2 19 10 
   6   0   0   0   0  10   0   0   0   0   0   2 19 12 
   8   0   0  10   0   0   0   0   0   0   0   1 12 
   5   0   0   0   0   0  10   0   0   0   0   2 19 14 
   4   0   0   0   0   0   0   0   0  10   0   1 13 
   6   0   0  10   0   0   0   0   0   0   0   1 14 
  10  10   0   0   0   0   0   0   0   0   0   3 21 17 15 
   8   0   0   0   0   0   0   0  10   0   0   1 16 
   5   0   0   0   0   0   0   0   0  10   0   1 18 
   8   0   0   0   0   0   0   0   0   0  10   1 18 
   4   0  10   0   0   0   0   0   0   0   0   1 20 
   3   0   0   0   0   0   0   0   0   0  10   1 21 
   5   0   0   0   0   0   0   0  10   0   0   1 22
   4   0  10   0   0   0   0   0   0   0   0   1 22
   0   0   0   0   0   0   0   0   0   0   0   0 
